n = 100;
C = 26038;
w = [263,880,37,682,650,249,923,424,459,933,743,96,791,359,116,2,943,712,685,126,751,30,422,6,551,696,765,730,882,825,16,900,326,611,552,965,579,423,951,144,807,554,599,342,961,113,179,673,652,752,850,53,815,519,968,27,659,959,847,144,236,196,119,949,571,795,713,777,67,557,338,620,67,172,470,821,660,814,115,839,148,832,680,775,274,93,357,449,387,351,724,315,27,421,385,250,816,942,407,876];
p = [1325,4410,195,3420,3260,1255,4625,2130,2305,4675,3725,490,3965,1805,590,20,4725,3570,3435,640,3765,160,2120,40,2765,3490,3835,3660,4420,4135,90,4510,1640,3065,2770,4835,2905,2125,4765,730,4045,2780,3005,1720,4815,575,905,3375,3270,3770,4260,275,4085,2605,4850,145,3305,4805,4245,730,1190,990,605,4755,2865,3985,3575,3895,345,2795,1700,3110,345,870,2360,4115,3310,4080,585,4205,750,4170,3410,3885,1380,475,1795,2255,1945,1765,3630,1585,145,2115,1935,1260,4090,4720,2045,4390];
